50
24 6
0 15
486 397
462 386
86 409
373 434
2 402
116 48
397 342
418 292
22 400
97 204
202 176
78 442
157 222
73 65
370 221
190 154
267 496
118 102
490 148
302 460
165 184
17 407
457 446
328 220
143 206
47 193
318 402
45 132
293 177
405 203
241 0
20 328
347 268
316 482
437 200
90 384
143 397
177 423
68 314
315 418
287 366
257 115
375 390
233 307
288 20
185 469
466 375
357 336
